
Model name: lp
                x1       x2 
Maximize       300      500 
r_1              1        2 <=      170
r_2              1        1 <=      150
Type          Real     Real 
upbo       Infinite      60 
lowbo            0        0 

Value of objective function: 49000

Actual values of the variables:
x1                   130
x2                   20

Actual values of the constraints:
r_1                  170
r_2                  150

Dual values with from - till limits:
r_1                       200       150      210
r_2                       100       110      170
x1                          0   -1e+024   1e+024
x2                          0   -1e+024   1e+024
